Tried aggregator 1 time.
MIQCP Presolve eliminated 7142 rows and 1211 columns.
MIQCP Presolve modified 25 coefficients.
Reduced MIQCP has 17361 rows, 17222 columns, and 57379 nonzeros.
Reduced MIQCP has 253 binaries, 41 generals, 0 SOSs, and 0 indicators.
Reduced MIQCP has 3305 quadratic constraints.
Presolve time = 1.20 sec. (55.10 ticks)
Probing fixed 0 vars, tightened 10772 bounds.
Probing changed sense of 5 constraints.
Probing time = 0.44 sec. (84.18 ticks)
Cover probing fixed 0 vars, tightened 1110 bounds.
Clique table members: 2065.
MIP emphasis: balance optimality and feasibility.
MIP search method: dynamic search.
Parallel mode: deterministic, using up to 16 threads.
Root relaxation solution time = 3.84 sec. (2959.36 ticks)

        Nodes                                         Cuts/
   Node  Left     Objective  IInf  Best Integer    Best Bound    ItCnt     Gap

      0     0        7.5500     0                      0.0000    15237         
      0     0        7.5500   168                      7.5500    15237         
      0     2        7.5500   113                      7.5500    15245         
Elapsed time = 11.34 sec. (5937.10 ticks, tree = 0.01 MB, solutions = 0)
      1     3        7.5500   116                      7.5500    16007         
      2     3        7.5500   141                      7.5500    16679         
      3     4        7.5500    76                      7.5500    16953         
      4     4        7.5500    60                      7.5500    17368         
      8     7        7.5500    90                      7.5500    22538         
     14    10        7.5500   123                      7.5500    23672         
     22     8    infeasible                            7.5500    24466         
     31     8       31.0300    73                      7.5500    23874         
     53    12    infeasible                            7.5500    26747         
     91     6        7.5500    94                      7.5500    32729         
Elapsed time = 22.80 sec. (10933.41 ticks, tree = 0.01 MB, solutions = 0)
    116     2    infeasible                            7.5500    38829         
    130     5        7.5500    91                      7.5500    39866         
*   153    10      integral     0      861.3500        7.5500    40430   99.12%
    153    10        cutoff            861.3500        7.5500    40430   99.12%
*   154     9      integral     0      812.2800        7.5500    40400   99.07%
*   155    12      integral     0      804.8400        7.5500    40464   99.06%
*   161     4      integral     0      737.5800        7.5500    40021   98.98%
    161     4        cutoff            737.5800        7.5500    40021   98.98%
    164    16      238.3300     6      737.5800        7.5500    40463   98.98%
    171    14  -1.00000e+75     0      737.5800        7.5500    40476   98.98%
    171    14        cutoff            737.5800        7.5500    40476   98.98%
*   173    13      integral     0      696.1500        7.5500    40543   98.92%
    173    13      696.1500     0      696.1500        7.5500    40543   98.92%
    174     7    infeasible            696.1500        7.5500    23517   98.92%
    175     4        cutoff            696.1500        7.5500    39997   98.92%

Cover cuts applied:  1
Implied bound cuts applied:  20
Cone linearizations applied:  151

Root node processing (before b&c):
  Real time             =   10.61 sec. (5803.09 ticks)
Parallel b&c, 16 threads:
  Real time             =   93.67 sec. (27510.26 ticks)
  Sync time (average)   =   76.42 sec.
  Wait time (average)   =    0.12 sec.
                          ------------
Total (root+branch&cut) =  104.28 sec. (33313.34 ticks)
